32      4       
18      11      13      20      
0       0       0       0       0       11      2       3       4       5       7       8       9       12      13      14      17      
8       1       1       1       1       5       6       15      19      26      31      
7       1       1       1       1       5       11      15      16      18      25      
1       5       1       2       1       3       10      15      18      
8       1       1       1       1       3       15      16      23      
6       1       1       1       2       3       21      22      25      
1       6       1       1       7       2       15      23      
1       1       1       1       1       2       15      23      
6       1       1       1       1       2       15      24      
1       1       1       1       1       4       24      25      28      30      
3       1       1       2       1       3       20      24      30      
5       1       1       1       1       3       20      24      30      
2       1       2       3       1       4       26      27      29      30      
3       1       1       3       5       3       23      28      30      
10      1       1       1       1       2       20      30      
7       1       2       1       1       3       26      27      29      
1       1       2       1       1       3       25      28      30      
10      1       1       1       1       2       23      28      
3       1       1       1       1       1       20      
3       1       1       4       1       3       27      28      29      
1       5       1       1       6       3       27      28      30      
8       1       1       1       1       1       23      
1       2       1       1       1       1       24      
1       1       1       1       1       1       27      
1       1       1       1       4       1       29      
5       1       1       1       1       1       28      
1       1       1       1       10      1       32      
7       6       1       1       3       1       32      
3       3       1       1       1       1       32      
6       1       1       1       1       1       32      
10      4       1       1       1       1       32      
0       0       0       0       0       0       
